c FILE: i160-242

c SOURCE: From steinlib

c DESCRIPTION: Steinlib instance with 160 nodes and 2544 edges.

p edge 160 2544
e 1 3
e 1 7
e 1 13
e 1 15
e 1 20
e 1 26
e 1 30
e 1 31
e 1 35
e 1 37
e 1 47
e 1 48
e 1 53
e 1 54
e 1 55
e 1 57
e 1 60
e 1 63
e 1 65
e 1 66
e 1 68
e 1 71
e 1 72
e 1 76
e 1 83
e 1 84
e 1 87
e 1 92
e 1 97
e 1 108
e 1 110
e 1 113
e 1 117
e 1 118
e 1 121
e 1 127
e 1 130
e 1 136
e 1 137
e 1 139
e 1 142
e 1 143
e 1 150
e 1 154
e 1 155
e 1 156
e 2 4
e 2 7
e 2 10
e 2 22
e 2 27
e 2 31
e 2 32
e 2 35
e 2 46
e 2 55
e 2 61
e 2 70
e 2 73
e 2 76
e 2 85
e 2 87
e 2 90
e 2 96
e 2 97
e 2 100
e 2 111
e 2 131
e 2 140
e 2 141
e 2 143
e 2 144
e 2 149
e 2 153
e 2 154
e 2 157
e 3 4
e 3 11
e 3 15
e 3 16
e 3 19
e 3 26
e 3 41
e 3 45
e 3 47
e 3 59
e 3 60
e 3 67
e 3 69
e 3 78
e 3 79
e 3 82
e 3 86
e 3 90
e 3 94
e 3 95
e 3 98
e 3 99
e 3 104
e 3 111
e 3 113
e 3 116
e 3 117
e 3 120
e 3 123
e 3 133
e 3 158
e 4 22
e 4 38
e 4 44
e 4 57
e 4 63
e 4 77
e 4 80
e 4 82
e 4 88
e 4 94
e 4 97
e 4 98
e 4 100
e 4 105
e 4 113
e 4 148
e 4 150
e 4 153
e 5 8
e 5 11
e 5 17
e 5 21
e 5 22
e 5 28
e 5 36
e 5 37
e 5 44
e 5 56
e 5 58
e 5 64
e 5 65
e 5 68
e 5 71
e 5 78
e 5 80
e 5 86
e 5 89
e 5 106
e 5 114
e 5 126
e 5 133
e 5 136
e 5 148
e 5 151
e 5 152
e 5 153
e 5 155
e 6 8
e 6 9
e 6 12
e 6 15
e 6 17
e 6 21
e 6 30
e 6 35
e 6 42
e 6 48
e 6 49
e 6 50
e 6 53
e 6 61
e 6 62
e 6 68
e 6 71
e 6 73
e 6 78
e 6 80
e 6 97
e 6 105
e 6 107
e 6 113
e 6 119
e 6 121
e 6 133
e 6 134
e 6 146
e 6 151
e 7 10
e 7 12
e 7 13
e 7 16
e 7 18
e 7 36
e 7 48
e 7 53
e 7 55
e 7 66
e 7 67
e 7 72
e 7 83
e 7 100
e 7 106
e 7 107
e 7 115
e 7 116
e 7 117
e 7 119
e 7 128
e 7 135
e 7 138
e 7 139
e 7 150
e 7 154
e 8 17
e 8 22
e 8 29
e 8 38
e 8 39
e 8 41
e 8 44
e 8 47
e 8 54
e 8 61
e 8 66
e 8 76
e 8 78
e 8 81
e 8 83
e 8 96
e 8 97
e 8 101
e 8 104
e 8 106
e 8 108
e 8 116
e 8 123
e 8 128
e 8 129
e 8 136
e 8 146
e 8 154
e 8 158
e 9 13
e 9 15
e 9 25
e 9 28
e 9 34
e 9 37
e 9 38
e 9 40
e 9 43
e 9 50
e 9 53
e 9 55
e 9 71
e 9 83
e 9 87
e 9 88
e 9 93
e 9 96
e 9 99
e 9 100
e 9 106
e 9 115
e 9 116
e 9 124
e 9 129
e 9 131
e 9 134
e 9 138
e 9 140
e 9 149
e 9 153
e 9 155
e 9 157
e 9 158
e 10 16
e 10 20
e 10 28
e 10 29
e 10 45
e 10 49
e 10 54
e 10 59
e 10 62
e 10 65
e 10 70
e 10 71
e 10 72
e 10 80
e 10 88
e 10 93
e 10 95
e 10 96
e 10 100
e 10 111
e 10 113
e 10 118
e 10 121
e 10 126
e 10 130
e 10 141
e 10 154
e 11 25
e 11 37
e 11 50
e 11 55
e 11 60
e 11 75
e 11 78
e 11 79
e 11 87
e 11 97
e 11 107
e 11 117
e 11 126
e 11 131
e 11 145
e 11 147
e 11 155
e 11 159
e 12 23
e 12 26
e 12 41
e 12 53
e 12 55
e 12 68
e 12 69
e 12 91
e 12 92
e 12 99
e 12 102
e 12 103
e 12 109
e 12 115
e 12 117
e 12 120
e 12 125
e 12 127
e 12 138
e 12 140
e 12 141
e 12 152
e 12 156
e 12 160
e 13 22
e 13 25
e 13 34
e 13 51
e 13 52
e 13 56
e 13 68
e 13 73
e 13 74
e 13 77
e 13 85
e 13 99
e 13 105
e 13 107
e 13 110
e 13 112
e 13 123
e 13 129
e 13 130
e 13 131
e 13 132
e 13 134
e 13 140
e 13 149
e 14 20
e 14 21
e 14 26
e 14 36
e 14 44
e 14 55
e 14 61
e 14 68
e 14 71
e 14 73
e 14 75
e 14 85
e 14 87
e 14 104
e 14 123
e 14 126
e 14 127
e 14 129
e 14 132
e 14 137
e 14 139
e 14 141
e 14 143
e 14 144
e 14 152
e 15 17
e 15 19
e 15 20
e 15 29
e 15 30
e 15 32
e 15 36
e 15 38
e 15 46
e 15 50
e 15 59
e 15 61
e 15 64
e 15 70
e 15 76
e 15 78
e 15 94
e 15 100
e 15 111
e 15 115
e 15 119
e 15 123
e 15 124
e 15 125
e 15 131
e 15 134
e 15 135
e 15 137
e 15 143
e 15 144
e 15 149
e 15 150
e 15 151
e 15 160
e 16 21
e 16 27
e 16 30
e 16 36
e 16 41
e 16 47
e 16 48
e 16 50
e 16 52
e 16 56
e 16 58
e 16 60
e 16 61
e 16 63
e 16 64
e 16 66
e 16 69
e 16 72
e 16 76
e 16 79
e 16 82
e 16 90
e 16 94
e 16 98
e 16 99
e 16 109
e 16 110
e 16 129
e 16 132
e 16 137
e 16 139
e 16 142
e 16 149
e 16 152
e 16 153
e 16 154
e 17 30
e 17 32
e 17 40
e 17 46
e 17 53
e 17 57
e 17 60
e 17 61
e 17 67
e 17 78
e 17 84
e 17 87
e 17 88
e 17 98
e 17 100
e 17 102
e 17 107
e 17 115
e 17 131
e 17 132
e 17 134
e 17 142
e 17 143
e 17 145
e 17 153
e 17 158
e 18 24
e 18 27
e 18 28
e 18 40
e 18 41
e 18 44
e 18 50
e 18 59
e 18 61
e 18 65
e 18 69
e 18 73
e 18 77
e 18 87
e 18 91
e 18 98
e 18 108
e 18 114
e 18 118
e 18 126
e 18 128
e 18 130
e 18 133
e 18 134
e 18 136
e 18 138
e 18 141
e 18 145
e 18 152
e 19 20
e 19 22
e 19 25
e 19 27
e 19 33
e 19 35
e 19 42
e 19 49
e 19 51
e 19 53
e 19 57
e 19 74
e 19 81
e 19 84
e 19 92
e 19 94
e 19 102
e 19 106
e 19 110
e 19 112
e 19 124
e 19 133
e 19 134
e 19 145
e 19 151
e 19 153
e 19 155
e 19 156
e 19 159
e 20 21
e 20 36
e 20 39
e 20 40
e 20 57
e 20 59
e 20 61
e 20 71
e 20 75
e 20 76
e 20 77
e 20 83
e 20 84
e 20 90
e 20 93
e 20 100
e 20 104
e 20 109
e 20 110
e 20 120
e 20 122
e 20 127
e 20 131
e 20 140
e 20 153
e 20 160
e 21 23
e 21 27
e 21 37
e 21 54
e 21 63
e 21 66
e 21 68
e 21 70
e 21 71
e 21 77
e 21 83
e 21 84
e 21 86
e 21 94
e 21 96
e 21 105
e 21 106
e 21 110
e 21 114
e 21 116
e 21 126
e 21 130
e 21 134
e 21 139
e 21 141
e 21 144
e 21 146
e 21 159
e 21 160
e 22 24
e 22 52
e 22 54
e 22 55
e 22 56
e 22 61
e 22 62
e 22 78
e 22 88
e 22 103
e 22 104
e 22 111
e 22 112
e 22 113
e 22 117
e 22 118
e 22 123
e 22 125
e 22 127
e 22 133
e 22 135
e 22 144
e 22 155
e 22 158
e 23 28
e 23 29
e 23 32
e 23 47
e 23 49
e 23 52
e 23 62
e 23 63
e 23 71
e 23 80
e 23 86
e 23 91
e 23 93
e 23 98
e 23 107
e 23 118
e 23 120
e 23 122
e 23 126
e 23 134
e 23 135
e 23 143
e 23 148
e 23 153
e 23 158
e 23 159
e 24 26
e 24 28
e 24 30
e 24 31
e 24 40
e 24 44
e 24 64
e 24 67
e 24 77
e 24 82
e 24 85
e 24 86
e 24 90
e 24 94
e 24 98
e 24 104
e 24 106
e 24 109
e 24 110
e 24 122
e 24 123
e 24 124
e 24 128
e 24 134
e 24 149
e 24 150
e 24 154
e 24 155
e 24 159
e 25 32
e 25 39
e 25 42
e 25 43
e 25 45
e 25 46
e 25 60
e 25 61
e 25 68
e 25 78
e 25 80
e 25 84
e 25 88
e 25 92
e 25 110
e 25 111
e 25 116
e 25 118
e 25 121
e 25 122
e 25 125
e 25 142
e 25 146
e 25 150
e 25 152
e 26 27
e 26 41
e 26 52
e 26 54
e 26 66
e 26 68
e 26 72
e 26 75
e 26 77
e 26 79
e 26 80
e 26 85
e 26 86
e 26 87
e 26 95
e 26 98
e 26 102
e 26 115
e 26 117
e 26 122
e 26 125
e 26 126
e 26 128
e 26 131
e 26 137
e 26 139
e 26 141
e 26 145
e 26 147
e 26 151
e 26 152
e 27 31
e 27 32
e 27 33
e 27 36
e 27 38
e 27 54
e 27 63
e 27 65
e 27 66
e 27 78
e 27 82
e 27 83
e 27 90
e 27 93
e 27 96
e 27 97
e 27 98
e 27 102
e 27 105
e 27 109
e 27 126
e 27 130
e 27 136
e 27 145
e 27 146
e 27 150
e 27 159
e 28 31
e 28 44
e 28 51
e 28 53
e 28 60
e 28 63
e 28 81
e 28 88
e 28 94
e 28 96
e 28 98
e 28 100
e 28 103
e 28 104
e 28 107
e 28 116
e 28 117
e 28 122
e 28 127
e 28 128
e 28 132
e 28 137
e 28 148
e 28 149
e 28 151
e 28 155
e 28 160
e 29 37
e 29 50
e 29 52
e 29 63
e 29 66
e 29 79
e 29 82
e 29 92
e 29 100
e 29 103
e 29 108
e 29 113
e 29 114
e 29 115
e 29 118
e 29 131
e 29 135
e 29 147
e 29 150
e 29 152
e 29 153
e 29 160
e 30 35
e 30 37
e 30 45
e 30 47
e 30 49
e 30 50
e 30 52
e 30 54
e 30 60
e 30 62
e 30 66
e 30 68
e 30 77
e 30 81
e 30 97
e 30 99
e 30 101
e 30 102
e 30 105
e 30 112
e 30 113
e 30 123
e 30 125
e 30 130
e 30 137
e 30 139
e 30 152
e 30 154
e 31 32
e 31 38
e 31 41
e 31 44
e 31 49
e 31 54
e 31 60
e 31 65
e 31 67
e 31 76
e 31 77
e 31 81
e 31 83
e 31 88
e 31 91
e 31 93
e 31 114
e 31 116
e 31 118
e 31 121
e 31 128
e 31 131
e 31 132
e 31 133
e 31 139
e 31 146
e 31 148
e 31 156
e 32 35
e 32 36
e 32 45
e 32 47
e 32 50
e 32 55
e 32 58
e 32 59
e 32 62
e 32 76
e 32 78
e 32 81
e 32 88
e 32 89
e 32 103
e 32 104
e 32 106
e 32 107
e 32 108
e 32 109
e 32 110
e 32 114
e 32 117
e 32 124
e 32 126
e 32 132
e 32 133
e 32 138
e 32 140
e 32 144
e 32 151
e 32 152
e 32 153
e 32 154
e 33 36
e 33 42
e 33 43
e 33 45
e 33 50
e 33 51
e 33 53
e 33 57
e 33 59
e 33 66
e 33 72
e 33 78
e 33 80
e 33 92
e 33 98
e 33 110
e 33 113
e 33 120
e 33 122
e 33 123
e 33 132
e 33 146
e 33 147
e 33 148
e 33 159
e 34 37
e 34 43
e 34 44
e 34 50
e 34 58
e 34 63
e 34 67
e 34 81
e 34 85
e 34 87
e 34 92
e 34 101
e 34 105
e 34 108
e 34 109
e 34 112
e 34 113
e 34 117
e 34 118
e 34 121
e 34 123
e 34 135
e 34 136
e 34 140
e 34 145
e 34 151
e 35 36
e 35 42
e 35 43
e 35 45
e 35 57
e 35 64
e 35 73
e 35 74
e 35 80
e 35 83
e 35 93
e 35 94
e 35 112
e 35 113
e 35 122
e 35 138
e 35 144
e 35 146
e 35 155
e 36 39
e 36 40
e 36 44
e 36 48
e 36 55
e 36 57
e 36 62
e 36 63
e 36 65
e 36 66
e 36 69
e 36 70
e 36 72
e 36 82
e 36 92
e 36 96
e 36 99
e 36 101
e 36 102
e 36 103
e 36 108
e 36 109
e 36 112
e 36 124
e 36 125
e 36 128
e 36 129
e 36 136
e 36 140
e 36 142
e 36 148
e 36 151
e 36 153
e 36 158
e 37 42
e 37 53
e 37 56
e 37 70
e 37 71
e 37 72
e 37 82
e 37 84
e 37 86
e 37 94
e 37 99
e 37 118
e 37 120
e 37 135
e 37 136
e 37 142
e 37 144
e 37 156
e 37 157
e 38 39
e 38 40
e 38 41
e 38 58
e 38 73
e 38 76
e 38 77
e 38 83
e 38 92
e 38 100
e 38 105
e 38 108
e 38 111
e 38 116
e 38 121
e 38 122
e 38 123
e 38 128
e 38 134
e 38 136
e 38 137
e 38 139
e 38 148
e 38 151
e 38 152
e 38 155
e 38 156
e 38 157
e 39 41
e 39 43
e 39 46
e 39 47
e 39 50
e 39 56
e 39 58
e 39 61
e 39 67
e 39 79
e 39 80
e 39 87
e 39 98
e 39 103
e 39 108
e 39 112
e 39 113
e 39 123
e 39 124
e 39 130
e 39 132
e 39 136
e 39 146
e 39 160
e 40 52
e 40 53
e 40 56
e 40 60
e 40 61
e 40 63
e 40 73
e 40 75
e 40 77
e 40 79
e 40 81
e 40 84
e 40 85
e 40 103
e 40 121
e 40 125
e 40 130
e 40 135
e 40 139
e 40 146
e 40 150
e 41 44
e 41 49
e 41 58
e 41 67
e 41 73
e 41 76
e 41 77
e 41 80
e 41 87
e 41 89
e 41 94
e 41 96
e 41 104
e 41 105
e 41 108
e 41 111
e 41 128
e 41 133
e 41 140
e 41 142
e 41 143
e 41 153
e 41 154
e 41 159
e 42 43
e 42 46
e 42 48
e 42 53
e 42 58
e 42 60
e 42 74
e 42 78
e 42 79
e 42 83
e 42 86
e 42 90
e 42 91
e 42 92
e 42 103
e 42 105
e 42 115
e 42 124
e 42 127
e 42 131
e 42 133
e 42 137
e 42 141
e 42 145
e 42 148
e 42 151
e 42 158
e 42 159
e 42 160
e 43 44
e 43 50
e 43 58
e 43 61
e 43 62
e 43 65
e 43 68
e 43 70
e 43 71
e 43 75
e 43 77
e 43 87
e 43 89
e 43 93
e 43 94
e 43 95
e 43 104
e 43 107
e 43 117
e 43 120
e 43 125
e 43 138
e 43 140
e 43 141
e 43 142
e 43 144
e 43 148
e 43 151
e 44 46
e 44 50
e 44 56
e 44 59
e 44 61
e 44 63
e 44 66
e 44 67
e 44 70
e 44 79
e 44 81
e 44 84
e 44 86
e 44 93
e 44 94
e 44 113
e 44 115
e 44 123
e 44 124
e 44 125
e 44 130
e 44 151
e 44 153
e 44 156
e 45 51
e 45 61
e 45 65
e 45 73
e 45 74
e 45 76
e 45 77
e 45 78
e 45 83
e 45 96
e 45 100
e 45 102
e 45 105
e 45 109
e 45 110
e 45 114
e 45 123
e 45 124
e 45 126
e 45 127
e 45 128
e 45 134
e 45 139
e 45 148
e 45 149
e 45 152
e 45 155
e 46 58
e 46 67
e 46 78
e 46 82
e 46 83
e 46 84
e 46 96
e 46 98
e 46 99
e 46 100
e 46 101
e 46 102
e 46 104
e 46 114
e 46 117
e 46 121
e 46 140
e 46 142
e 46 143
e 46 146
e 46 153
e 46 155
e 47 48
e 47 53
e 47 55
e 47 61
e 47 67
e 47 68
e 47 73
e 47 75
e 47 81
e 47 82
e 47 96
e 47 108
e 47 115
e 47 120
e 47 123
e 47 124
e 47 130
e 47 133
e 47 134
e 47 139
e 47 141
e 47 147
e 47 149
e 47 154
e 47 159
e 48 52
e 48 53
e 48 54
e 48 57
e 48 59
e 48 70
e 48 72
e 48 79
e 48 83
e 48 85
e 48 86
e 48 88
e 48 91
e 48 106
e 48 111
e 48 113
e 48 120
e 48 122
e 48 126
e 48 129
e 48 134
e 48 138
e 48 140
e 48 145
e 48 155
e 49 52
e 49 57
e 49 73
e 49 74
e 49 77
e 49 79
e 49 82
e 49 84
e 49 86
e 49 89
e 49 94
e 49 95
e 49 96
e 49 103
e 49 105
e 49 111
e 49 124
e 49 131
e 49 134
e 49 137
e 49 139
e 49 142
e 49 145
e 49 153
e 49 158
e 49 160
e 50 51
e 50 61
e 50 65
e 50 67
e 50 73
e 50 74
e 50 82
e 50 85
e 50 96
e 50 112
e 50 113
e 50 116
e 50 123
e 50 127
e 50 132
e 50 136
e 50 137
e 50 144
e 50 145
e 51 52
e 51 53
e 51 54
e 51 56
e 51 62
e 51 64
e 51 65
e 51 68
e 51 70
e 51 76
e 51 77
e 51 82
e 51 92
e 51 93
e 51 99
e 51 101
e 51 112
e 51 114
e 51 130
e 51 136
e 51 138
e 51 140
e 51 141
e 51 143
e 51 151
e 51 153
e 52 53
e 52 67
e 52 70
e 52 88
e 52 95
e 52 99
e 52 101
e 52 106
e 52 110
e 52 118
e 52 123
e 52 128
e 52 130
e 52 131
e 52 135
e 52 142
e 52 155
e 53 58
e 53 59
e 53 61
e 53 63
e 53 69
e 53 72
e 53 73
e 53 81
e 53 93
e 53 104
e 53 108
e 53 113
e 53 119
e 53 124
e 53 129
e 53 135
e 53 143
e 53 151
e 53 155
e 53 160
e 54 66
e 54 69
e 54 75
e 54 83
e 54 97
e 54 99
e 54 101
e 54 111
e 54 116
e 54 125
e 54 126
e 54 127
e 54 128
e 54 129
e 54 130
e 54 136
e 54 138
e 54 142
e 54 148
e 54 157
e 54 158
e 55 62
e 55 65
e 55 74
e 55 77
e 55 79
e 55 80
e 55 90
e 55 91
e 55 96
e 55 108
e 55 111
e 55 119
e 55 121
e 55 126
e 55 128
e 55 131
e 55 141
e 55 150
e 56 75
e 56 79
e 56 80
e 56 84
e 56 85
e 56 88
e 56 89
e 56 91
e 56 97
e 56 106
e 56 108
e 56 111
e 56 113
e 56 115
e 56 116
e 56 133
e 56 137
e 56 138
e 56 151
e 56 153
e 56 155
e 56 159
e 57 60
e 57 63
e 57 64
e 57 71
e 57 80
e 57 88
e 57 89
e 57 96
e 57 97
e 57 99
e 57 104
e 57 105
e 57 108
e 57 111
e 57 116
e 57 120
e 57 126
e 57 135
e 57 142
e 57 147
e 57 148
e 57 158
e 57 159
e 58 61
e 58 72
e 58 84
e 58 90
e 58 97
e 58 99
e 58 101
e 58 114
e 58 118
e 58 124
e 58 125
e 58 127
e 58 133
e 58 138
e 58 139
e 58 140
e 58 150
e 58 157
e 58 159
e 59 60
e 59 71
e 59 73
e 59 74
e 59 79
e 59 80
e 59 82
e 59 86
e 59 87
e 59 94
e 59 97
e 59 103
e 59 104
e 59 107
e 59 118
e 59 121
e 59 125
e 59 127
e 59 135
e 59 146
e 59 147
e 59 148
e 60 61
e 60 76
e 60 78
e 60 80
e 60 81
e 60 82
e 60 91
e 60 94
e 60 97
e 60 106
e 60 109
e 60 110
e 60 113
e 60 115
e 60 117
e 60 118
e 60 120
e 60 122
e 60 125
e 60 127
e 60 134
e 60 140
e 60 149
e 60 153
e 60 156
e 61 62
e 61 63
e 61 70
e 61 83
e 61 92
e 61 96
e 61 101
e 61 103
e 61 109
e 61 111
e 61 112
e 61 118
e 61 120
e 61 129
e 61 132
e 61 134
e 61 135
e 61 140
e 61 154
e 61 157
e 61 160
e 62 68
e 62 75
e 62 76
e 62 78
e 62 80
e 62 84
e 62 86
e 62 88
e 62 89
e 62 90
e 62 93
e 62 95
e 62 105
e 62 113
e 62 130
e 62 133
e 62 134
e 62 136
e 62 141
e 62 144
e 62 149
e 62 151
e 62 158
e 62 159
e 63 82
e 63 85
e 63 86
e 63 93
e 63 107
e 63 108
e 63 111
e 63 112
e 63 113
e 63 115
e 63 118
e 63 121
e 63 123
e 63 128
e 63 129
e 63 137
e 63 145
e 63 152
e 63 153
e 64 65
e 64 77
e 64 80
e 64 83
e 64 87
e 64 93
e 64 95
e 64 105
e 64 108
e 64 109
e 64 113
e 64 114
e 64 115
e 64 121
e 64 123
e 64 129
e 64 141
e 64 147
e 64 148
e 64 150
e 64 155
e 64 159
e 65 67
e 65 74
e 65 75
e 65 77
e 65 78
e 65 84
e 65 86
e 65 96
e 65 104
e 65 119
e 65 124
e 65 126
e 65 130
e 65 134
e 65 135
e 65 140
e 65 143
e 65 148
e 65 151
e 65 154
e 65 156
e 65 157
e 66 77
e 66 82
e 66 85
e 66 91
e 66 110
e 66 117
e 66 118
e 66 120
e 66 121
e 66 123
e 66 126
e 66 130
e 66 131
e 66 132
e 66 133
e 66 135
e 66 140
e 66 153
e 66 159
e 67 68
e 67 74
e 67 77
e 67 78
e 67 85
e 67 88
e 67 103
e 67 106
e 67 111
e 67 114
e 67 128
e 67 140
e 67 148
e 67 150
e 67 155
e 68 81
e 68 83
e 68 88
e 68 92
e 68 94
e 68 95
e 68 120
e 68 125
e 68 126
e 68 131
e 68 132
e 68 139
e 68 140
e 68 143
e 68 145
e 68 156
e 68 158
e 69 71
e 69 74
e 69 79
e 69 81
e 69 84
e 69 91
e 69 97
e 69 105
e 69 108
e 69 120
e 69 121
e 69 132
e 69 135
e 69 138
e 69 145
e 69 146
e 69 151
e 69 154
e 69 159
e 70 79
e 70 83
e 70 90
e 70 92
e 70 96
e 70 97
e 70 105
e 70 112
e 70 114
e 70 115
e 70 124
e 70 125
e 70 126
e 70 136
e 70 139
e 70 144
e 70 145
e 70 147
e 70 149
e 70 151
e 70 152
e 71 73
e 71 84
e 71 85
e 71 90
e 71 91
e 71 94
e 71 102
e 71 106
e 71 114
e 71 115
e 71 126
e 71 132
e 71 135
e 71 138
e 71 143
e 71 147
e 71 150
e 71 156
e 71 157
e 72 82
e 72 83
e 72 89
e 72 90
e 72 102
e 72 104
e 72 111
e 72 113
e 72 117
e 72 131
e 72 140
e 72 143
e 72 152
e 72 157
e 73 75
e 73 78
e 73 80
e 73 92
e 73 99
e 73 109
e 73 111
e 73 112
e 73 115
e 73 117
e 73 118
e 73 133
e 73 137
e 73 138
e 73 140
e 73 155
e 73 157
e 73 158
e 74 79
e 74 82
e 74 89
e 74 91
e 74 93
e 74 100
e 74 101
e 74 105
e 74 107
e 74 113
e 74 114
e 74 117
e 74 132
e 74 134
e 74 135
e 74 137
e 74 138
e 74 142
e 74 146
e 74 155
e 74 156
e 74 157
e 75 83
e 75 84
e 75 89
e 75 94
e 75 99
e 75 100
e 75 109
e 75 112
e 75 116
e 75 121
e 75 138
e 75 139
e 75 146
e 75 150
e 75 155
e 76 80
e 76 83
e 76 84
e 76 88
e 76 95
e 76 97
e 76 99
e 76 103
e 76 108
e 76 111
e 76 117
e 76 136
e 76 140
e 76 143
e 76 151
e 76 152
e 76 157
e 77 84
e 77 85
e 77 90
e 77 91
e 77 101
e 77 102
e 77 108
e 77 109
e 77 113
e 77 120
e 77 121
e 77 139
e 77 143
e 77 147
e 77 149
e 77 150
e 77 151
e 77 156
e 77 157
e 78 81
e 78 85
e 78 93
e 78 106
e 78 109
e 78 110
e 78 113
e 78 116
e 78 123
e 78 125
e 78 143
e 78 146
e 78 159
e 79 81
e 79 88
e 79 95
e 79 105
e 79 107
e 79 112
e 79 116
e 79 118
e 79 125
e 79 128
e 79 135
e 79 145
e 79 146
e 79 148
e 79 153
e 80 81
e 80 82
e 80 83
e 80 114
e 80 118
e 80 137
e 80 140
e 80 142
e 80 148
e 80 151
e 80 159
e 81 83
e 81 85
e 81 96
e 81 98
e 81 100
e 81 101
e 81 103
e 81 109
e 81 116
e 81 126
e 81 128
e 81 131
e 81 134
e 81 148
e 81 150
e 81 158
e 82 91
e 82 92
e 82 96
e 82 99
e 82 117
e 82 123
e 82 126
e 82 128
e 82 130
e 82 138
e 82 141
e 82 145
e 82 146
e 82 150
e 82 153
e 82 158
e 82 160
e 83 84
e 83 86
e 83 92
e 83 95
e 83 96
e 83 101
e 83 102
e 83 104
e 83 114
e 83 119
e 83 120
e 83 125
e 83 130
e 83 139
e 83 140
e 83 142
e 83 145
e 83 147
e 83 149
e 83 157
e 84 99
e 84 116
e 84 134
e 84 137
e 84 140
e 84 142
e 84 149
e 84 151
e 84 152
e 84 155
e 85 87
e 85 91
e 85 94
e 85 124
e 85 133
e 85 138
e 85 139
e 85 146
e 85 150
e 85 156
e 85 158
e 85 159
e 86 96
e 86 105
e 86 106
e 86 110
e 86 120
e 86 121
e 86 123
e 86 132
e 86 134
e 86 140
e 86 141
e 86 142
e 86 148
e 86 150
e 86 156
e 87 95
e 87 96
e 87 98
e 87 113
e 87 115
e 87 120
e 87 123
e 87 127
e 87 133
e 87 150
e 87 153
e 87 159
e 88 90
e 88 92
e 88 98
e 88 101
e 88 106
e 88 112
e 88 117
e 88 119
e 88 128
e 88 131
e 88 138
e 88 143
e 88 153
e 89 94
e 89 95
e 89 98
e 89 112
e 89 114
e 89 118
e 89 121
e 89 122
e 89 123
e 89 126
e 89 131
e 89 150
e 89 152
e 89 153
e 89 159
e 89 160
e 90 94
e 90 102
e 90 106
e 90 108
e 90 111
e 90 116
e 90 122
e 90 125
e 90 130
e 90 132
e 90 135
e 90 137
e 90 139
e 90 145
e 90 146
e 90 147
e 90 150
e 90 153
e 90 156
e 91 92
e 91 94
e 91 96
e 91 101
e 91 105
e 91 113
e 91 115
e 91 118
e 91 122
e 91 124
e 91 142
e 91 146
e 91 160
e 92 100
e 92 104
e 92 109
e 92 118
e 92 120
e 92 126
e 92 131
e 92 135
e 92 136
e 92 142
e 92 144
e 92 149
e 92 153
e 92 154
e 92 157
e 92 160
e 93 97
e 93 121
e 93 139
e 93 143
e 93 153
e 94 97
e 94 99
e 94 101
e 94 103
e 94 108
e 94 119
e 94 121
e 94 129
e 94 132
e 94 137
e 94 146
e 94 153
e 94 158
e 95 100
e 95 101
e 95 112
e 95 132
e 95 133
e 95 139
e 95 142
e 95 144
e 95 159
e 96 99
e 96 103
e 96 123
e 96 127
e 96 131
e 96 143
e 96 146
e 96 151
e 96 153
e 96 157
e 97 98
e 97 100
e 97 106
e 97 117
e 97 119
e 97 120
e 97 122
e 97 148
e 97 150
e 98 106
e 98 118
e 98 125
e 98 128
e 98 129
e 98 136
e 98 138
e 98 140
e 98 146
e 98 153
e 98 155
e 99 100
e 99 108
e 99 111
e 99 113
e 99 114
e 99 118
e 99 132
e 99 135
e 99 141
e 99 142
e 99 143
e 99 144
e 99 151
e 99 154
e 99 159
e 100 105
e 100 108
e 100 127
e 100 128
e 100 136
e 100 139
e 100 143
e 100 149
e 100 151
e 100 153
e 100 154
e 100 155
e 100 156
e 100 159
e 100 160
e 101 103
e 101 111
e 101 112
e 101 115
e 101 120
e 101 123
e 101 126
e 101 134
e 101 149
e 101 154
e 101 155
e 101 156
e 101 160
e 102 103
e 102 109
e 102 115
e 102 116
e 102 117
e 102 122
e 102 134
e 102 140
e 102 142
e 102 156
e 103 106
e 103 114
e 103 120
e 103 121
e 103 125
e 103 130
e 103 132
e 103 137
e 103 138
e 103 144
e 103 146
e 103 147
e 103 157
e 103 160
e 104 107
e 104 108
e 104 109
e 104 118
e 104 126
e 104 128
e 104 135
e 104 141
e 104 148
e 104 156
e 104 157
e 105 110
e 105 115
e 105 116
e 105 120
e 105 127
e 105 138
e 105 148
e 105 149
e 105 151
e 105 156
e 106 113
e 106 116
e 106 124
e 106 125
e 106 129
e 106 132
e 106 134
e 106 136
e 106 142
e 106 155
e 107 112
e 107 115
e 107 117
e 107 121
e 107 122
e 107 131
e 107 134
e 107 140
e 107 146
e 107 151
e 107 160
e 108 113
e 108 116
e 108 118
e 108 127
e 108 128
e 108 136
e 108 145
e 108 148
e 108 158
e 108 160
e 109 115
e 109 120
e 109 121
e 109 124
e 109 127
e 109 140
e 109 141
e 109 145
e 109 148
e 109 151
e 109 155
e 109 159
e 110 115
e 110 120
e 110 122
e 110 124
e 110 130
e 110 137
e 110 140
e 110 141
e 110 144
e 110 150
e 110 153
e 110 159
e 111 119
e 111 120
e 111 123
e 111 124
e 111 135
e 111 140
e 111 145
e 111 153
e 111 155
e 112 115
e 112 129
e 112 136
e 112 139
e 112 141
e 112 150
e 112 151
e 112 152
e 112 153
e 112 160
e 113 118
e 113 135
e 113 140
e 113 146
e 113 151
e 113 155
e 113 159
e 114 121
e 114 122
e 114 131
e 114 136
e 114 147
e 114 153
e 114 155
e 114 158
e 115 117
e 115 120
e 115 122
e 115 126
e 115 131
e 115 136
e 115 138
e 115 148
e 116 121
e 116 124
e 116 131
e 116 133
e 116 137
e 116 142
e 116 143
e 116 144
e 116 145
e 116 146
e 116 153
e 116 154
e 116 156
e 116 157
e 116 158
e 116 160
e 117 121
e 117 124
e 117 130
e 117 136
e 117 142
e 117 143
e 117 152
e 117 157
e 118 122
e 118 126
e 118 129
e 118 130
e 118 140
e 119 122
e 119 123
e 119 124
e 119 131
e 119 133
e 119 139
e 119 143
e 119 147
e 119 149
e 119 160
e 120 121
e 120 122
e 120 123
e 120 134
e 120 136
e 120 139
e 120 154
e 120 155
e 120 156
e 120 157
e 120 158
e 121 124
e 121 130
e 121 132
e 121 135
e 121 138
e 121 144
e 121 150
e 121 151
e 121 152
e 121 153
e 121 154
e 121 159
e 122 125
e 122 126
e 122 131
e 122 133
e 122 134
e 122 138
e 122 141
e 122 142
e 122 152
e 123 128
e 123 132
e 123 135
e 123 136
e 123 143
e 123 145
e 123 147
e 123 150
e 123 159
e 124 125
e 124 126
e 124 129
e 124 153
e 124 159
e 124 160
e 125 138
e 125 139
e 125 140
e 125 141
e 125 142
e 125 143
e 125 152
e 126 131
e 126 141
e 126 144
e 126 148
e 126 152
e 127 131
e 127 133
e 127 137
e 127 138
e 127 143
e 127 151
e 127 153
e 128 135
e 128 142
e 128 145
e 128 146
e 128 154
e 128 155
e 128 158
e 129 142
e 129 143
e 129 144
e 129 154
e 129 158
e 130 131
e 130 132
e 130 138
e 130 147
e 130 157
e 131 135
e 131 140
e 131 147
e 131 148
e 131 155
e 131 157
e 132 134
e 132 141
e 132 142
e 132 153
e 133 154
e 133 158
e 134 138
e 134 156
e 135 136
e 135 147
e 135 148
e 135 149
e 135 150
e 135 153
e 136 141
e 136 143
e 136 146
e 137 141
e 137 147
e 137 149
e 137 152
e 137 156
e 137 157
e 138 139
e 138 149
e 138 155
e 138 159
e 139 144
e 139 147
e 139 149
e 139 152
e 139 153
e 139 158
e 140 145
e 140 148
e 140 152
e 140 156
e 141 145
e 141 147
e 141 150
e 141 154
e 142 154
e 142 156
e 143 148
e 143 155
e 143 159
e 145 146
e 145 147
e 145 148
e 145 154
e 145 157
e 145 160
e 146 156
e 146 157
e 146 159
e 147 154
e 148 150
e 148 154
e 148 157
e 148 160
e 149 151
e 149 154
e 150 155
e 150 158
e 151 155
e 151 157
e 152 159
e 153 157
e 153 158
e 154 156
e 154 157
e 155 159
e 155 160
e 156 158
